[TITLE]

[JUNCTIONS]
;ID                      Elevation       Demand Pattern                 
 N40                                0               0                            ;
 N60                                0               0                            ;
 N80                                0               0                            ;
 N100                               0               0                            ;
 N120                               0               0                            ;
 N140                               0               0                            ;
 N160                               0               0                            ;

[RESERVOIRS]
;ID                                   Head                  Pattern
 R1                                60                            ;
 R2                                50                            ;

[TANKS]
;ID                              Elevation           Init Level            Min Level            Max Level             Diameter           Min Volume Volume Curve         Overflow            

[PIPES]
;ID                   Node1                Node2                              Length             Diameter            Roughness           Minor Loss               Status
 P1                   R1                   N40                               40             300             250               0                 Open   ;
 P2                   N40                  N60                               20             300             250               0                 Open   ;
 P3                   N60                  N80                               20             300             250               0                 Open   ;
 P4                   N80                  N100                              20             300             250               0                 Open   ;
 P5                   N100                 N120                              20             300             250               0                 Open   ;
 P6                   N120                 N140                              20             300             250               0                 Open   ;
 P7                   N140                 N160                              20             300             250               0                 Open   ;
 P8                   N160                 R2                                40             300             250               0                 Open   ;

[PUMPS]
;ID                   Node1                Node2                Properties          

[VALVES]
;ID                   Node1                Node2                            Diameter Type              Setting           Minor Loss

[TAGS]
;type      name       tag       

[DEMANDS]
;ID        Demand     Pattern   

[STATUS]
;ID        Setting   

[PATTERNS]
;ID        Multipliers

[CURVES]
;ID         X-Value      Y-Value     

[CONTROLS]

[RULES]

[ENERGY]
GLOBAL PRICE           0.0000

[EMITTERS]
;ID        Flow coefficient

[QUALITY]

[SOURCES]
;Node      Type       Quality    Pattern   

[REACTIONS]
;Type           Pipe/Tank               Coefficient

 ORDER BULK 1
 ORDER TANK 1
 ORDER WALL 1
 GLOBAL BULK 0.0000    
 GLOBAL WALL 0.0000    

[MIXING]
;Tank ID             Model Fraction

[TIMES]
DURATION             00:00:00
HYDRAULIC TIMESTEP   01:00:00
QUALITY TIMESTEP     00:06:00
PATTERN TIMESTEP     01:00:00
PATTERN START        00:00:00
REPORT TIMESTEP      01:00:00
REPORT START         00:00:00
START CLOCKTIME      00:00:00 AM
RULE TIMESTEP        00:06:00
STATISTIC            NONE      

[REPORT]

[OPTIONS]
UNITS                LPS                 
HEADLOSS             D-W                 
SPECIFIC GRAVITY     1
VISCOSITY            1
TRIALS               200
ACCURACY             0.001
CHECKFREQ            2
MAXCHECK             10
UNBALANCED           STOP                
PATTERN              1                   
DEMAND MULTIPLIER    1
EMITTER EXPONENT     0.5
QUALITY              NONE                
DIFFUSIVITY          1
TOLERANCE            0.01

[COORDINATES]
;Node      X-Coord    Y-Coord   
R1                  0.000000000          0.000000000
R2                200.000000000          0.000000000
N40                40.000000000          0.000000000
N60                60.000000000          0.000000000
N80                80.000000000          0.000000000
N100              100.000000000          0.000000000
N120              120.000000000          0.000000000
N140              140.000000000          0.000000000
N160              160.000000000          0.000000000

[VERTICES]
;Link      X-Coord    Y-Coord   

[LABELS]

[BACKDROP]
UNITS    NONE

[END]
